output/reflection_ilp.lp
Maximize
  0.00710375174563416 Z_725_0_0 + 0.0445719021519505 Z_725_0_1
   + 0.1072261523199575 Z_725_0_2 + 2.2096681003947434e-04 Z_725_0_3
   + 0.7408772269724183 Z_725_0_4 + 0.000969837 Z_532_1_0
   + 8.0096124717824639e-04 Z_532_1_1 + 0.4963453660755751 Z_532_1_2
   + 0.00217466847873441 Z_532_1_3 + 0.399709167262517 Z_532_1_4
   + 0.000969837 Z_532_0_0 + 8.0096124717824639e-04 Z_532_0_1
   + 0.4963453660755751 Z_532_0_2 + 0.00217466847873441 Z_532_0_3
   + 0.399709167262517 Z_532_0_4 + 0.0129780163686231 Z_532_2_0
   + 0.00252253464547314 Z_532_2_1 + 0.1961822799083088 Z_532_2_2
   + 0.1254938730030366 Z_532_2_3 + 0.5628232960745584 Z_532_2_4
   + 0.0129780163686231 Z_532_4_0 + 0.00252253464547314 Z_532_4_1
   + 0.1961822799083088 Z_532_4_2 + 0.1254938730030366 Z_532_4_3
   + 0.5628232960745584 Z_532_4_4 + 0.1235205224105614 Z_532_5_0
   + 0.0835820305319438 Z_532_5_1 + 0.01147901042228 Z_532_5_2
   + 0.1842071595952897 Z_532_5_3 + 0.4972112770399251 Z_532_5_4
   + 0.6401488277797398 Z_532_3_0 + 0.1065037445768788 Z_532_3_1
   + 0.00566675929143241 Z_532_3_2 + 0.018521075492597 Z_532_3_3
   + 0.129159592859352 Z_532_3_4
Subject To
 constraint1_7250: Z_725_0_0 + Z_725_0_1 + Z_725_0_2 + Z_725_0_3
   + Z_725_0_4 <= 1
 constraint1_5321: Z_532_1_0 + Z_532_1_1 + Z_532_1_2 + Z_532_1_3
   + Z_532_1_4 <= 1
 constraint1_5320: Z_532_0_0 + Z_532_0_1 + Z_532_0_2 + Z_532_0_3
   + Z_532_0_4 <= 1
 constraint1_5322: Z_532_2_0 + Z_532_2_1 + Z_532_2_2 + Z_532_2_3
   + Z_532_2_4 <= 1
 constraint1_5324: Z_532_4_0 + Z_532_4_1 + Z_532_4_2 + Z_532_4_3
   + Z_532_4_4 <= 1
 constraint1_5325: Z_532_5_0 + Z_532_5_1 + Z_532_5_2 + Z_532_5_3
   + Z_532_5_4 <= 1
 constraint1_5323: Z_532_3_0 + Z_532_3_1 + Z_532_3_2 + Z_532_3_3
   + Z_532_3_4 <= 1
 constraint2_2400: <= 1
 constraint2_2401: <= 1
 constraint2_2402: <= 1
 constraint2_2403: <= 1
 constraint2_7250: Z_725_0_0 <= 1
 constraint2_7251: Z_725_0_1 <= 1
 constraint2_7252: Z_725_0_2 <= 1
 constraint2_7253: Z_725_0_3 <= 1
 constraint2_5320: Z_532_1_0 + Z_532_0_0 + Z_532_2_0 + Z_532_4_0
   + Z_532_5_0 + Z_532_3_0 <= 1
 constraint2_5321: Z_532_1_1 + Z_532_0_1 + Z_532_2_1 + Z_532_4_1
   + Z_532_5_1 + Z_532_3_1 <= 1
 constraint2_5322: Z_532_1_2 + Z_532_0_2 + Z_532_2_2 + Z_532_4_2
   + Z_532_5_2 + Z_532_3_2 <= 1
 constraint2_5323: Z_532_1_3 + Z_532_0_3 + Z_532_2_3 + Z_532_4_3
   + Z_532_5_3 + Z_532_3_3 <= 1
Bounds
Binaries
 Z_725_0_0 Z_725_0_1 Z_725_0_2 Z_725_0_3 Z_725_0_4 Z_532_1_0 Z_532_1_1
 Z_532_1_2 Z_532_1_3 Z_532_1_4 Z_532_0_0 Z_532_0_1 Z_532_0_2 Z_532_0_3
 Z_532_0_4 Z_532_2_0 Z_532_2_1 Z_532_2_2 Z_532_2_3 Z_532_2_4 Z_532_4_0
 Z_532_4_1 Z_532_4_2 Z_532_4_3 Z_532_4_4 Z_532_5_0 Z_532_5_1 Z_532_5_2
 Z_532_5_3 Z_532_5_4 Z_532_3_0 Z_532_3_1 Z_532_3_2 Z_532_3_3 Z_532_3_4
End
