output/reflection_ilp.mps
NAME reflection_srl_ilp
* Max problem is converted into Min one
ROWS
 N  OBJ
 L  constraint1_7250
 L  constraint1_5321
 L  constraint1_5320
 L  constraint1_5322
 L  constraint1_5324
 L  constraint1_5325
 L  constraint1_5323
 L  constraint2_2400
 L  constraint2_2401
 L  constraint2_2402
 L  constraint2_2403
 L  constraint2_7250
 L  constraint2_7251
 L  constraint2_7252
 L  constraint2_7253
 L  constraint2_5320
 L  constraint2_5321
 L  constraint2_5322
 L  constraint2_5323
COLUMNS
    MARKER    'MARKER'                 'INTORG'
    Z_725_0_0  OBJ       -7.1037517456341596e-03
    Z_725_0_0  constraint1_7250  1
    Z_725_0_0  constraint2_7250  1
    Z_725_0_1  OBJ       -4.4571902151950456e-02
    Z_725_0_1  constraint1_7250  1
    Z_725_0_1  constraint2_7251  1
    Z_725_0_2  OBJ       -1.0722615231995747e-01
    Z_725_0_2  constraint1_7250  1
    Z_725_0_2  constraint2_7252  1
    Z_725_0_3  OBJ       -2.2096681003947434e-04
    Z_725_0_3  constraint1_7250  1
    Z_725_0_3  constraint2_7253  1
    Z_725_0_4  OBJ       -7.4087722697241831e-01
    Z_725_0_4  constraint1_7250  1
    Z_532_1_0  OBJ       -9.6983693599517781e-04
    Z_532_1_0  constraint1_5321  1
    Z_532_1_0  constraint2_5320  1
    Z_532_1_1  OBJ       -8.0096124717824639e-04
    Z_532_1_1  constraint1_5321  1
    Z_532_1_1  constraint2_5321  1
    Z_532_1_2  OBJ       -4.9634536607557511e-01
    Z_532_1_2  constraint1_5321  1
    Z_532_1_2  constraint2_5322  1
    Z_532_1_3  OBJ       -2.1746684787344057e-03
    Z_532_1_3  constraint1_5321  1
    Z_532_1_3  constraint2_5323  1
    Z_532_1_4  OBJ       -3.9970916726251698e-01
    Z_532_1_4  constraint1_5321  1
    Z_532_0_0  OBJ       -9.6983693599517781e-04
    Z_532_0_0  constraint1_5320  1
    Z_532_0_0  constraint2_5320  1
    Z_532_0_1  OBJ       -8.0096124717824639e-04
    Z_532_0_1  constraint1_5320  1
    Z_532_0_1  constraint2_5321  1
    Z_532_0_2  OBJ       -4.9634536607557511e-01
    Z_532_0_2  constraint1_5320  1
    Z_532_0_2  constraint2_5322  1
    Z_532_0_3  OBJ       -2.1746684787344057e-03
    Z_532_0_3  constraint1_5320  1
    Z_532_0_3  constraint2_5323  1
    Z_532_0_4  OBJ       -3.9970916726251698e-01
    Z_532_0_4  constraint1_5320  1
    Z_532_2_0  OBJ       -1.2978016368623094e-02
    Z_532_2_0  constraint1_5322  1
    Z_532_2_0  constraint2_5320  1
    Z_532_2_1  OBJ       -2.5225346454731379e-03
    Z_532_2_1  constraint1_5322  1
    Z_532_2_1  constraint2_5321  1
    Z_532_2_2  OBJ       -1.9618227990830880e-01
    Z_532_2_2  constraint1_5322  1
    Z_532_2_2  constraint2_5322  1
    Z_532_2_3  OBJ       -1.2549387300303660e-01
    Z_532_2_3  constraint1_5322  1
    Z_532_2_3  constraint2_5323  1
    Z_532_2_4  OBJ       -5.6282329607455839e-01
    Z_532_2_4  constraint1_5322  1
    Z_532_4_0  OBJ       -1.2978016368623094e-02
    Z_532_4_0  constraint1_5324  1
    Z_532_4_0  constraint2_5320  1
    Z_532_4_1  OBJ       -2.5225346454731379e-03
    Z_532_4_1  constraint1_5324  1
    Z_532_4_1  constraint2_5321  1
    Z_532_4_2  OBJ       -1.9618227990830880e-01
    Z_532_4_2  constraint1_5324  1
    Z_532_4_2  constraint2_5322  1
    Z_532_4_3  OBJ       -1.2549387300303660e-01
    Z_532_4_3  constraint1_5324  1
    Z_532_4_3  constraint2_5323  1
    Z_532_4_4  OBJ       -5.6282329607455839e-01
    Z_532_4_4  constraint1_5324  1
    Z_532_5_0  OBJ       -1.2352052241056137e-01
    Z_532_5_0  constraint1_5325  1
    Z_532_5_0  constraint2_5320  1
    Z_532_5_1  OBJ       -8.3582030531943824e-02
    Z_532_5_1  constraint1_5325  1
    Z_532_5_1  constraint2_5321  1
    Z_532_5_2  OBJ       -1.1479010422280004e-02
    Z_532_5_2  constraint1_5325  1
    Z_532_5_2  constraint2_5322  1
    Z_532_5_3  OBJ       -1.8420715959528972e-01
    Z_532_5_3  constraint1_5325  1
    Z_532_5_3  constraint2_5323  1
    Z_532_5_4  OBJ       -4.9721127703992507e-01
    Z_532_5_4  constraint1_5325  1
    Z_532_3_0  OBJ       -6.4014882777973980e-01
    Z_532_3_0  constraint1_5323  1
    Z_532_3_0  constraint2_5320  1
    Z_532_3_1  OBJ       -1.0650374457687879e-01
    Z_532_3_1  constraint1_5323  1
    Z_532_3_1  constraint2_5321  1
    Z_532_3_2  OBJ       -5.6667592914324142e-03
    Z_532_3_2  constraint1_5323  1
    Z_532_3_2  constraint2_5322  1
    Z_532_3_3  OBJ       -1.8521075492596992e-02
    Z_532_3_3  constraint1_5323  1
    Z_532_3_3  constraint2_5323  1
    Z_532_3_4  OBJ       -1.2915959285935202e-01
    Z_532_3_4  constraint1_5323  1
    MARKER    'MARKER'                 'INTEND'
RHS
    RHS1      constraint1_7250  1
    RHS1      constraint1_5321  1
    RHS1      constraint1_5320  1
    RHS1      constraint1_5322  1
    RHS1      constraint1_5324  1
    RHS1      constraint1_5325  1
    RHS1      constraint1_5323  1
    RHS1      constraint2_2400  1
    RHS1      constraint2_2401  1
    RHS1      constraint2_2402  1
    RHS1      constraint2_2403  1
    RHS1      constraint2_7250  1
    RHS1      constraint2_7251  1
    RHS1      constraint2_7252  1
    RHS1      constraint2_7253  1
    RHS1      constraint2_5320  1
    RHS1      constraint2_5321  1
    RHS1      constraint2_5322  1
    RHS1      constraint2_5323  1
BOUNDS
 UP BND1      Z_725_0_0  1
 UP BND1      Z_725_0_1  1
 UP BND1      Z_725_0_2  1
 UP BND1      Z_725_0_3  1
 UP BND1      Z_725_0_4  1
 UP BND1      Z_532_1_0  1
 UP BND1      Z_532_1_1  1
 UP BND1      Z_532_1_2  1
 UP BND1      Z_532_1_3  1
 UP BND1      Z_532_1_4  1
 UP BND1      Z_532_0_0  1
 UP BND1      Z_532_0_1  1
 UP BND1      Z_532_0_2  1
 UP BND1      Z_532_0_3  1
 UP BND1      Z_532_0_4  1
 UP BND1      Z_532_2_0  1
 UP BND1      Z_532_2_1  1
 UP BND1      Z_532_2_2  1
 UP BND1      Z_532_2_3  1
 UP BND1      Z_532_2_4  1
 UP BND1      Z_532_4_0  1
 UP BND1      Z_532_4_1  1
 UP BND1      Z_532_4_2  1
 UP BND1      Z_532_4_3  1
 UP BND1      Z_532_4_4  1
 UP BND1      Z_532_5_0  1
 UP BND1      Z_532_5_1  1
 UP BND1      Z_532_5_2  1
 UP BND1      Z_532_5_3  1
 UP BND1      Z_532_5_4  1
 UP BND1      Z_532_3_0  1
 UP BND1      Z_532_3_1  1
 UP BND1      Z_532_3_2  1
 UP BND1      Z_532_3_3  1
 UP BND1      Z_532_3_4  1
ENDATA
